FourierSAT_Github_AIJ/benchmarks/MAXSAT_benchmarks/crafted/3/bipartite/maxcut-140-630-0.8/maxcut-140-630-0.8-15.cnf
c strEdges: 125  randomEdges: 504 
c degrees:  1  2 
c girth: Inf max: -43.604516  
c Hgirth mixed MAXCUT instance
c generated from an undirected graph
c to solve unweighted MaxCut
p cnf 140 1258
46 64 0
-46 -64 0
46 24 0
-46 -24 0
68 21 0
-68 -21 0
87 90 0
-87 -90 0
87 2 0
-87 -2 0
44 48 0
-44 -48 0
44 7 0
-44 -7 0
77 88 0
-77 -88 0
101 84 0
-101 -84 0
101 139 0
-101 -139 0
92 42 0
-92 -42 0
92 90 0
-92 -90 0
113 58 0
-113 -58 0
113 98 0
-113 -98 0
120 128 0
-120 -128 0
71 54 0
-71 -54 0
71 21 0
-71 -21 0
73 132 0
-73 -132 0
73 59 0
-73 -59 0
17 57 0
-17 -57 0
47 96 0
-47 -96 0
47 61 0
-47 -61 0
39 34 0
-39 -34 0
39 22 0
-39 -22 0
110 121 0
-110 -121 0
110 62 0
-110 -62 0
16 63 0
-16 -63 0
16 123 0
-16 -123 0
97 11 0
-97 -11 0
97 34 0
-97 -34 0
33 105 0
-33 -105 0
33 56 0
-33 -56 0
116 24 0
-116 -24 0
116 85 0
-116 -85 0
86 2 0
-86 -2 0
115 10 0
-115 -10 0
115 29 0
-115 -29 0
67 82 0
-67 -82 0
133 56 0
-133 -56 0
133 74 0
-133 -74 0
140 74 0
-140 -74 0
140 42 0
-140 -42 0
94 85 0
-94 -85 0
94 5 0
-94 -5 0
20 111 0
-20 -111 0
20 30 0
-20 -30 0
80 41 0
-80 -41 0
80 107 0
-80 -107 0
104 131 0
-104 -131 0
104 51 0
-104 -51 0
95 78 0
-95 -78 0
95 45 0
-95 -45 0
112 23 0
-112 -23 0
112 114 0
-112 -114 0
83 100 0
-83 -100 0
83 40 0
-83 -40 0
118 30 0
-118 -30 0
118 121 0
-118 -121 0
43 59 0
-43 -59 0
43 100 0
-43 -100 0
9 136 0
-9 -136 0
9 91 0
-9 -91 0
108 91 0
-108 -91 0
102 14 0
-102 -14 0
102 72 0
-102 -72 0
31 22 0
-31 -22 0
109 6 0
-109 -6 0
109 19 0
-109 -19 0
127 50 0
-127 -50 0
127 54 0
-127 -54 0
52 29 0
-52 -29 0
52 58 0
-52 -58 0
27 107 0
-27 -107 0
27 88 0
-27 -88 0
126 81 0
-126 -81 0
126 35 0
-126 -35 0
4 139 0
-4 -139 0
4 136 0
-4 -136 0
49 66 0
-49 -66 0
53 45 0
-53 -45 0
53 48 0
-53 -48 0
135 51 0
-135 -51 0
135 66 0
-135 -66 0
125 12 0
-125 -12 0
125 15 0
-125 -15 0
119 32 0
-119 -32 0
137 13 0
-137 -13 0
137 50 0
-137 -50 0
93 75 0
-93 -75 0
93 10 0
-93 -10 0
8 61 0
-8 -61 0
8 129 0
-8 -129 0
122 98 0
-122 -98 0
60 124 0
-60 -124 0
60 64 0
-60 -64 0
89 65 0
-89 -65 0
89 78 0
-89 -78 0
1 7 0
-1 -7 0
1 96 0
-1 -96 0
69 5 0
-69 -5 0
69 32 0
-69 -32 0
25 123 0
-25 -123 0
134 138 0
-134 -138 0
103 114 0
-103 -114 0
103 65 0
-103 -65 0
28 40 0
-28 -40 0
28 128 0
-28 -128 0
36 62 0
-36 -62 0
36 132 0
-36 -132 0
18 15 0
-18 -15 0
18 105 0
-18 -105 0
117 55 0
-117 -55 0
117 111 0
-117 -111 0
106 70 0
-106 -70 0
3 76 0
-3 -76 0
99 129 0
-99 -129 0
99 75 0
-99 -75 0
37 19 0
-37 -19 0
37 55 0
-37 -55 0
26 35 0
-26 -35 0
26 41 0
-26 -41 0
130 72 0
-130 -72 0
130 11 0
-130 -11 0
79 38 0
-79 -38 0
79 14 0
-79 -14 0
101 112 0
-101 -112 0
7 40 0
-7 -40 0
137 36 0
-137 -36 0
42 24 0
-42 -24 0
108 136 0
-108 -136 0
59 50 0
-59 -50 0
117 96 0
-117 -96 0
105 107 0
-105 -107 0
54 132 0
-54 -132 0
36 81 0
-36 -81 0
87 27 0
-87 -27 0
140 138 0
-140 -138 0
134 111 0
-134 -111 0
135 111 0
-135 -111 0
73 114 0
-73 -114 0
8 48 0
-8 -48 0
87 22 0
-87 -22 0
108 64 0
-108 -64 0
112 32 0
-112 -32 0
119 89 0
-119 -89 0
49 30 0
-49 -30 0
25 22 0
-25 -22 0
79 11 0
-79 -11 0
6 15 0
-6 -15 0
29 66 0
-29 -66 0
86 22 0
-86 -22 0
9 26 0
-9 -26 0
22 13 0
-22 -13 0
86 55 0
-86 -55 0
117 34 0
-117 -34 0
119 131 0
-119 -131 0
40 129 0
-40 -129 0
60 58 0
-60 -58 0
102 31 0
-102 -31 0
121 111 0
-121 -111 0
4 91 0
-4 -91 0
106 107 0
-106 -107 0
110 131 0
-110 -131 0
99 62 0
-99 -62 0
1 11 0
-1 -11 0
108 40 0
-108 -40 0
41 23 0
-41 -23 0
46 53 0
-46 -53 0
46 119 0
-46 -119 0
58 136 0
-58 -136 0
46 88 0
-46 -88 0
92 51 0
-92 -51 0
54 2 0
-54 -2 0
49 132 0
-49 -132 0
103 123 0
-103 -123 0
4 66 0
-4 -66 0
47 105 0
-47 -105 0
90 132 0
-90 -132 0
4 89 0
-4 -89 0
117 26 0
-117 -26 0
117 105 0
-117 -105 0
21 12 0
-21 -12 0
43 30 0
-43 -30 0
112 21 0
-112 -21 0
122 61 0
-122 -61 0
111 70 0
-111 -70 0
135 78 0
-135 -78 0
23 14 0
-23 -14 0
101 82 0
-101 -82 0
43 117 0
-43 -117 0
137 11 0
-137 -11 0
115 6 0
-115 -6 0
118 102 0
-118 -102 0
106 55 0
-106 -55 0
56 35 0
-56 -35 0
69 18 0
-69 -18 0
86 112 0
-86 -112 0
113 47 0
-113 -47 0
73 70 0
-73 -70 0
1 58 0
-1 -58 0
122 88 0
-122 -88 0
140 134 0
-140 -134 0
83 84 0
-83 -84 0
68 50 0
-68 -50 0
86 11 0
-86 -11 0
135 99 0
-135 -99 0
140 90 0
-140 -90 0
43 90 0
-43 -90 0
133 26 0
-133 -26 0
92 72 0
-92 -72 0
79 100 0
-79 -100 0
133 134 0
-133 -134 0
10 65 0
-10 -65 0
16 127 0
-16 -127 0
36 19 0
-36 -19 0
119 107 0
-119 -107 0
78 15 0
-78 -15 0
28 10 0
-28 -10 0
101 119 0
-101 -119 0
94 7 0
-94 -7 0
39 41 0
-39 -41 0
67 100 0
-67 -100 0
86 83 0
-86 -83 0
39 6 0
-39 -6 0
106 7 0
-106 -7 0
116 8 0
-116 -8 0
105 40 0
-105 -40 0
34 81 0
-34 -81 0
2 32 0
-2 -32 0
93 45 0
-93 -45 0
28 90 0
-28 -90 0
69 88 0
-69 -88 0
9 3 0
-9 -3 0
50 19 0
-50 -19 0
46 80 0
-46 -80 0
64 81 0
-64 -81 0
106 38 0
-106 -38 0
118 9 0
-118 -9 0
87 116 0
-87 -116 0
95 26 0
-95 -26 0
52 61 0
-52 -61 0
69 30 0
-69 -30 0
83 25 0
-83 -25 0
42 55 0
-42 -55 0
126 23 0
-126 -23 0
103 34 0
-103 -34 0
118 85 0
-118 -85 0
37 11 0
-37 -11 0
67 1 0
-67 -1 0
60 48 0
-60 -48 0
68 90 0
-68 -90 0
16 105 0
-16 -105 0
67 59 0
-67 -59 0
80 1 0
-80 -1 0
17 130 0
-17 -130 0
133 40 0
-133 -40 0
26 82 0
-26 -82 0
132 13 0
-132 -13 0
20 123 0
-20 -123 0
131 123 0
-131 -123 0
69 103 0
-69 -103 0
116 121 0
-116 -121 0
78 62 0
-78 -62 0
95 62 0
-95 -62 0
113 107 0
-113 -107 0
133 127 0
-133 -127 0
46 99 0
-46 -99 0
86 80 0
-86 -80 0
2 61 0
-2 -61 0
90 91 0
-90 -91 0
110 78 0
-110 -78 0
44 94 0
-44 -94 0
52 11 0
-52 -11 0
46 36 0
-46 -36 0
130 139 0
-130 -139 0
13 35 0
-13 -35 0
59 123 0
-59 -123 0
116 36 0
-116 -36 0
67 49 0
-67 -49 0
86 89 0
-86 -89 0
116 117 0
-116 -117 0
4 81 0
-4 -81 0
2 10 0
-2 -10 0
108 98 0
-108 -98 0
110 82 0
-110 -82 0
36 38 0
-36 -38 0
111 32 0
-111 -32 0
39 36 0
-39 -36 0
101 56 0
-101 -56 0
43 131 0
-43 -131 0
58 14 0
-58 -14 0
83 24 0
-83 -24 0
92 55 0
-92 -55 0
94 88 0
-94 -88 0
101 22 0
-101 -22 0
80 111 0
-80 -111 0
140 118 0
-140 -118 0
110 12 0
-110 -12 0
30 91 0
-30 -91 0
43 69 0
-43 -69 0
67 28 0
-67 -28 0
53 28 0
-53 -28 0
94 63 0
-94 -63 0
15 76 0
-15 -76 0
118 45 0
-118 -45 0
25 136 0
-25 -136 0
57 85 0
-57 -85 0
18 63 0
-18 -63 0
84 114 0
-84 -114 0
133 3 0
-133 -3 0
68 14 0
-68 -14 0
73 3 0
-73 -3 0
137 24 0
-137 -24 0
113 26 0
-113 -26 0
46 111 0
-46 -111 0
90 40 0
-90 -40 0
7 138 0
-7 -138 0
58 51 0
-58 -51 0
134 96 0
-134 -96 0
3 42 0
-3 -42 0
98 124 0
-98 -124 0
107 15 0
-107 -15 0
33 134 0
-33 -134 0
39 56 0
-39 -56 0
130 62 0
-130 -62 0
68 102 0
-68 -102 0
80 89 0
-80 -89 0
117 51 0
-117 -51 0
49 72 0
-49 -72 0
90 124 0
-90 -124 0
48 32 0
-48 -32 0
66 61 0
-66 -61 0
21 51 0
-21 -51 0
34 50 0
-34 -50 0
120 71 0
-120 -71 0
49 81 0
-49 -81 0
87 48 0
-87 -48 0
140 83 0
-140 -83 0
27 137 0
-27 -137 0
84 10 0
-84 -10 0
133 19 0
-133 -19 0
77 26 0
-77 -26 0
25 59 0
-25 -59 0
47 76 0
-47 -76 0
44 128 0
-44 -128 0
89 26 0
-89 -26 0
39 13 0
-39 -13 0
34 78 0
-34 -78 0
92 110 0
-92 -110 0
85 62 0
-85 -62 0
71 103 0
-71 -103 0
27 122 0
-27 -122 0
57 63 0
-57 -63 0
6 45 0
-6 -45 0
135 21 0
-135 -21 0
60 128 0
-60 -128 0
73 42 0
-73 -42 0
130 75 0
-130 -75 0
53 63 0
-53 -63 0
17 136 0
-17 -136 0
34 138 0
-34 -138 0
53 85 0
-53 -85 0
74 98 0
-74 -98 0
42 59 0
-42 -59 0
8 22 0
-8 -22 0
23 129 0
-23 -129 0
37 98 0
-37 -98 0
122 25 0
-122 -25 0
106 72 0
-106 -72 0
23 76 0
-23 -76 0
85 66 0
-85 -66 0
11 129 0
-11 -129 0
106 10 0
-106 -10 0
92 128 0
-92 -128 0
20 126 0
-20 -126 0
80 138 0
-80 -138 0
46 94 0
-46 -94 0
120 94 0
-120 -94 0
137 139 0
-137 -139 0
92 122 0
-92 -122 0
71 109 0
-71 -109 0
36 40 0
-36 -40 0
85 81 0
-85 -81 0
133 42 0
-133 -42 0
2 65 0
-2 -65 0
14 138 0
-14 -138 0
127 119 0
-127 -119 0
74 22 0
-74 -22 0
126 82 0
-126 -82 0
63 22 0
-63 -22 0
80 129 0
-80 -129 0
96 34 0
-96 -34 0
2 81 0
-2 -81 0
83 107 0
-83 -107 0
73 63 0
-73 -63 0
135 128 0
-135 -128 0
60 132 0
-60 -132 0
133 125 0
-133 -125 0
56 23 0
-56 -23 0
121 82 0
-121 -82 0
121 124 0
-121 -124 0
52 75 0
-52 -75 0
84 75 0
-84 -75 0
9 128 0
-9 -128 0
3 98 0
-3 -98 0
108 8 0
-108 -8 0
44 76 0
-44 -76 0
24 111 0
-24 -111 0
18 139 0
-18 -139 0
96 74 0
-96 -74 0
60 138 0
-60 -138 0
128 132 0
-128 -132 0
125 130 0
-125 -130 0
104 48 0
-104 -48 0
88 114 0
-88 -114 0
16 29 0
-16 -29 0
84 41 0
-84 -41 0
131 40 0
-131 -40 0
119 106 0
-119 -106 0
53 88 0
-53 -88 0
103 7 0
-103 -7 0
69 21 0
-69 -21 0
21 96 0
-21 -96 0
97 125 0
-97 -125 0
98 65 0
-98 -65 0
47 91 0
-47 -91 0
77 140 0
-77 -140 0
4 21 0
-4 -21 0
36 5 0
-36 -5 0
68 99 0
-68 -99 0
127 111 0
-127 -111 0
92 61 0
-92 -61 0
3 59 0
-3 -59 0
31 8 0
-31 -8 0
93 70 0
-93 -70 0
44 53 0
-44 -53 0
83 49 0
-83 -49 0
101 95 0
-101 -95 0
77 62 0
-77 -62 0
67 64 0
-67 -64 0
77 82 0
-77 -82 0
9 51 0
-9 -51 0
132 61 0
-132 -61 0
11 105 0
-11 -105 0
116 12 0
-116 -12 0
61 40 0
-61 -40 0
127 69 0
-127 -69 0
116 54 0
-116 -54 0
43 70 0
-43 -70 0
28 29 0
-28 -29 0
86 10 0
-86 -10 0
119 88 0
-119 -88 0
58 34 0
-58 -34 0
5 129 0
-5 -129 0
8 65 0
-8 -65 0
78 139 0
-78 -139 0
69 70 0
-69 -70 0
136 124 0
-136 -124 0
48 2 0
-48 -2 0
2 59 0
-2 -59 0
83 11 0
-83 -11 0
94 81 0
-94 -81 0
44 109 0
-44 -109 0
39 95 0
-39 -95 0
86 15 0
-86 -15 0
49 137 0
-49 -137 0
28 54 0
-28 -54 0
71 97 0
-71 -97 0
17 28 0
-17 -28 0
64 14 0
-64 -14 0
43 9 0
-43 -9 0
118 53 0
-118 -53 0
115 109 0
-115 -109 0
95 21 0
-95 -21 0
122 41 0
-122 -41 0
120 61 0
-120 -61 0
31 82 0
-31 -82 0
104 42 0
-104 -42 0
8 58 0
-8 -58 0
21 100 0
-21 -100 0
96 131 0
-96 -131 0
36 24 0
-36 -24 0
137 35 0
-137 -35 0
17 2 0
-17 -2 0
90 41 0
-90 -41 0
1 28 0
-1 -28 0
83 36 0
-83 -36 0
99 131 0
-99 -131 0
16 84 0
-16 -84 0
80 98 0
-80 -98 0
24 138 0
-24 -138 0
25 103 0
-25 -103 0
108 25 0
-108 -25 0
60 78 0
-60 -78 0
113 81 0
-113 -81 0
87 57 0
-87 -57 0
108 7 0
-108 -7 0
130 21 0
-130 -21 0
8 103 0
-8 -103 0
46 103 0
-46 -103 0
23 30 0
-23 -30 0
25 12 0
-25 -12 0
127 64 0
-127 -64 0
87 28 0
-87 -28 0
4 7 0
-4 -7 0
9 53 0
-9 -53 0
44 22 0
-44 -22 0
83 14 0
-83 -14 0
25 117 0
-25 -117 0
109 24 0
-109 -24 0
121 72 0
-121 -72 0
68 98 0
-68 -98 0
125 55 0
-125 -55 0
130 98 0
-130 -98 0
73 9 0
-73 -9 0
134 26 0
-134 -26 0
46 106 0
-46 -106 0
69 13 0
-69 -13 0
36 61 0
-36 -61 0
99 56 0
-99 -56 0
100 62 0
-100 -62 0
80 139 0
-80 -139 0
84 128 0
-84 -128 0
80 24 0
-80 -24 0
128 13 0
-128 -13 0
9 59 0
-9 -59 0
20 34 0
-20 -34 0
103 55 0
-103 -55 0
126 15 0
-126 -15 0
69 35 0
-69 -35 0
28 2 0
-28 -2 0
117 21 0
-117 -21 0
50 139 0
-50 -139 0
26 78 0
-26 -78 0
120 8 0
-120 -8 0
4 35 0
-4 -35 0
63 11 0
-63 -11 0
29 129 0
-29 -129 0
58 55 0
-58 -55 0
20 8 0
-20 -8 0
4 18 0
-4 -18 0
56 12 0
-56 -12 0
60 91 0
-60 -91 0
130 61 0
-130 -61 0
87 74 0
-87 -74 0
53 91 0
-53 -91 0
97 115 0
-97 -115 0
82 85 0
-82 -85 0
89 88 0
-89 -88 0
112 128 0
-112 -128 0
113 75 0
-113 -75 0
116 18 0
-116 -18 0
39 60 0
-39 -60 0
31 40 0
-31 -40 0
126 136 0
-126 -136 0
79 107 0
-79 -107 0
92 125 0
-92 -125 0
39 12 0
-39 -12 0
52 134 0
-52 -134 0
4 117 0
-4 -117 0
134 19 0
-134 -19 0
67 61 0
-67 -61 0
102 59 0
-102 -59 0
31 24 0
-31 -24 0
90 131 0
-90 -131 0
10 29 0
-10 -29 0
69 132 0
-69 -132 0
59 40 0
-59 -40 0
116 30 0
-116 -30 0
68 7 0
-68 -7 0
60 74 0
-60 -74 0
18 98 0
-18 -98 0
87 121 0
-87 -121 0
64 76 0
-64 -76 0
63 82 0
-63 -82 0
45 65 0
-45 -65 0
82 114 0
-82 -114 0
104 111 0
-104 -111 0
96 41 0
-96 -41 0
3 21 0
-3 -21 0
104 43 0
-104 -43 0
135 124 0
-135 -124 0
34 76 0
-34 -76 0
84 96 0
-84 -96 0
48 105 0
-48 -105 0
116 88 0
-116 -88 0
137 76 0
-137 -76 0
94 11 0
-94 -11 0
12 19 0
-12 -19 0
131 30 0
-131 -30 0
116 40 0
-116 -40 0
126 131 0
-126 -131 0
25 121 0
-25 -121 0
58 63 0
-58 -63 0
110 90 0
-110 -90 0
109 34 0
-109 -34 0
2 98 0
-2 -98 0
44 40 0
-44 -40 0
63 81 0
-63 -81 0
135 6 0
-135 -6 0
66 5 0
-66 -5 0
27 93 0
-27 -93 0
126 135 0
-126 -135 0
115 1 0
-115 -1 0
68 88 0
-68 -88 0
53 22 0
-53 -22 0
117 11 0
-117 -11 0
3 5 0
-3 -5 0
122 84 0
-122 -84 0
33 4 0
-33 -4 0
104 112 0
-104 -112 0
46 30 0
-46 -30 0
60 51 0
-60 -51 0
119 136 0
-119 -136 0
9 88 0
-9 -88 0
77 122 0
-77 -122 0
120 1 0
-120 -1 0
88 100 0
-88 -100 0
27 90 0
-27 -90 0
64 34 0
-64 -34 0
11 41 0
-11 -41 0
27 19 0
-27 -19 0
51 32 0
-51 -32 0
13 15 0
-13 -15 0
90 35 0
-90 -35 0
122 132 0
-122 -132 0
103 56 0
-103 -56 0
27 98 0
-27 -98 0
122 12 0
-122 -12 0
