FourierSAT_Github_AIJ/res/fs_1core/maxcut-140-630-0.8-15.cnf.txt
o 192
o 179
